644,169
755,178
718,169
518,726
436,887
311,286
207,481
681,826
681,706
611,503
778,336
1081,610
830,700
789,619
804,575
823,360
999,88
935,152
733,334
799,424
713,613
1125,336
893,618
570,748
505,648
1020,745
200,651
196,563
342,67
626,235
653,229
727,264
672,465
657,389
708,353
668,380
